c CNF file corresponding to a (partial) station packing problem.
p cnf 3697 229
1 2 3 4 5 6 7 8 9 10 11 12 13 14 0
-1 -2 0
-1 -3 0
-1 -4 0
-1 -5 0
-1 -6 0
-1 -7 0
-1 -8 0
-1 -9 0
-1 -10 0
-1 -11 0
-1 -12 0
-1 -13 0
-1 -14 0
-2 -3 0
-2 -4 0
-2 -5 0
-2 -6 0
-2 -7 0
-2 -8 0
-2 -9 0
-2 -10 0
-2 -11 0
-2 -12 0
-2 -13 0
-2 -14 0
-3 -4 0
-3 -5 0
-3 -6 0
-3 -7 0
-3 -8 0
-3 -9 0
-3 -10 0
-3 -11 0
-3 -12 0
-3 -13 0
-3 -14 0
-4 -5 0
-4 -6 0
-4 -7 0
-4 -8 0
-4 -9 0
-4 -10 0
-4 -11 0
-4 -12 0
-4 -13 0
-4 -14 0
-5 -6 0
-5 -7 0
-5 -8 0
-5 -9 0
-5 -10 0
-5 -11 0
-5 -12 0
-5 -13 0
-5 -14 0
-6 -7 0
-6 -8 0
-6 -9 0
-6 -10 0
-6 -11 0
-6 -12 0
-6 -13 0
-6 -14 0
-7 -8 0
-7 -9 0
-7 -10 0
-7 -11 0
-7 -12 0
-7 -13 0
-7 -14 0
-8 -9 0
-8 -10 0
-8 -11 0
-8 -12 0
-8 -13 0
-8 -14 0
-9 -10 0
-9 -11 0
-9 -12 0
-9 -13 0
-9 -14 0
-10 -11 0
-10 -12 0
-10 -13 0
-10 -14 0
-11 -12 0
-11 -13 0
-11 -14 0
-12 -13 0
-12 -14 0
-13 -14 0
3681 3682 3683 3684 3685 3686 3687 3688 3689 3690 3691 3692 3693 3694 3695 3696 3697 0
-3681 -3682 0
-3681 -3683 0
-3681 -3684 0
-3681 -3685 0
-3681 -3686 0
-3681 -3687 0
-3681 -3688 0
-3681 -3689 0
-3681 -3690 0
-3681 -3691 0
-3681 -3692 0
-3681 -3693 0
-3681 -3694 0
-3681 -3695 0
-3681 -3696 0
-3681 -3697 0
-3682 -3683 0
-3682 -3684 0
-3682 -3685 0
-3682 -3686 0
-3682 -3687 0
-3682 -3688 0
-3682 -3689 0
-3682 -3690 0
-3682 -3691 0
-3682 -3692 0
-3682 -3693 0
-3682 -3694 0
-3682 -3695 0
-3682 -3696 0
-3682 -3697 0
-3683 -3684 0
-3683 -3685 0
-3683 -3686 0
-3683 -3687 0
-3683 -3688 0
-3683 -3689 0
-3683 -3690 0
-3683 -3691 0
-3683 -3692 0
-3683 -3693 0
-3683 -3694 0
-3683 -3695 0
-3683 -3696 0
-3683 -3697 0
-3684 -3685 0
-3684 -3686 0
-3684 -3687 0
-3684 -3688 0
-3684 -3689 0
-3684 -3690 0
-3684 -3691 0
-3684 -3692 0
-3684 -3693 0
-3684 -3694 0
-3684 -3695 0
-3684 -3696 0
-3684 -3697 0
-3685 -3686 0
-3685 -3687 0
-3685 -3688 0
-3685 -3689 0
-3685 -3690 0
-3685 -3691 0
-3685 -3692 0
-3685 -3693 0
-3685 -3694 0
-3685 -3695 0
-3685 -3696 0
-3685 -3697 0
-3686 -3687 0
-3686 -3688 0
-3686 -3689 0
-3686 -3690 0
-3686 -3691 0
-3686 -3692 0
-3686 -3693 0
-3686 -3694 0
-3686 -3695 0
-3686 -3696 0
-3686 -3697 0
-3687 -3688 0
-3687 -3689 0
-3687 -3690 0
-3687 -3691 0
-3687 -3692 0
-3687 -3693 0
-3687 -3694 0
-3687 -3695 0
-3687 -3696 0
-3687 -3697 0
-3688 -3689 0
-3688 -3690 0
-3688 -3691 0
-3688 -3692 0
-3688 -3693 0
-3688 -3694 0
-3688 -3695 0
-3688 -3696 0
-3688 -3697 0
-3689 -3690 0
-3689 -3691 0
-3689 -3692 0
-3689 -3693 0
-3689 -3694 0
-3689 -3695 0
-3689 -3696 0
-3689 -3697 0
-3690 -3691 0
-3690 -3692 0
-3690 -3693 0
-3690 -3694 0
-3690 -3695 0
-3690 -3696 0
-3690 -3697 0
-3691 -3692 0
-3691 -3693 0
-3691 -3694 0
-3691 -3695 0
-3691 -3696 0
-3691 -3697 0
-3692 -3693 0
-3692 -3694 0
-3692 -3695 0
-3692 -3696 0
-3692 -3697 0
-3693 -3694 0
-3693 -3695 0
-3693 -3696 0
-3693 -3697 0
-3694 -3695 0
-3694 -3696 0
-3694 -3697 0
-3695 -3696 0
-3695 -3697 0
-3696 -3697 0
